HUN,8,6,427
1,17,4,3,3,15,5,17,2,3,0,1
0,28,5,13,2,18,3,27,4,1,1,5
1,25,0,6,3,19,5,23,4,23,2,4
2,18,0,11,5,12,4,8,3,6,1,25
1,19,3,6,2,2,5,15,0,5,4,1
2,14,5,7,0,21,3,30,1,22,4,29
0,13,4,10,2,26,3,9,5,16,1,18
1,25,4,28,0,15,5,2,2,18,3,17
